p cnf 144 1
144 0
w 1 0.453516
w 2 1 1
w 2 -1 0
w 3 2 1
w 3 -2 0
w 4 3 1
w 4 -3 0
w 5 4 0.23371
w 5 -4 0.0926657
w 6 5 1
w 6 -5 0
w 7 6 1
w 7 -6 0
w 8 7 0.203387
w 8 -7 0.802134
w 9 8 0
w 9 -8 1
w 10 9 1
w 10 -9 0
w 11 10 0.349618
w 11 -10 0.525157
w 12 11 0
w 12 -11 1
w 13 1 0.0229817
w 13 -1 0.486757
w 14 13 2 1
w 14 13 -2 0
w 14 -13 2 1
w 14 -13 -2 0
w 15 14 3 0
w 15 14 -3 0
w 15 -14 3 0
w 15 -14 -3 1
w 16 15 4 0
w 16 15 -4 1
w 16 -15 4 1
w 16 -15 -4 1
w 17 16 5 0.358041
w 17 16 -5 0.238271
w 17 -16 5 0.604012
w 17 -16 -5 0.0892405
w 18 17 6 0
w 18 17 -6 0
w 18 -17 6 1
w 18 -17 -6 0
w 19 18 7 0
w 19 18 -7 0
w 19 -18 7 1
w 19 -18 -7 0
w 20 19 8 0.514339
w 20 19 -8 0.147664
w 20 -19 8 0.923613
w 20 -19 -8 0.123274
w 21 20 9 0
w 21 20 -9 0
w 21 -20 9 1
w 21 -20 -9 0
w 22 21 10 0.63019
w 22 21 -10 0.140824
w 22 -21 10 0.789125
w 22 -21 -10 0.784844
w 23 22 11 0
w 23 22 -11 1
w 23 -22 11 0
w 23 -22 -11 0
w 24 23 12 0
w 24 23 -12 0
w 24 -23 12 1
w 24 -23 -12 0
w 25 13 0
w 25 -13 1
w 26 25 14 1
w 26 25 -14 0
w 26 -25 14 0
w 26 -25 -14 0
w 27 26 15 1
w 27 26 -15 0
w 27 -26 15 0
w 27 -26 -15 0
w 28 27 16 0.581282
w 28 27 -16 0.574453
w 28 -27 16 0.8341
w 28 -27 -16 0.422835
w 29 28 17 0
w 29 28 -17 0
w 29 -28 17 1
w 29 -28 -17 0
w 30 29 18 1
w 30 29 -18 1
w 30 -29 18 1
w 30 -29 -18 0
w 31 30 19 1
w 31 30 -19 0
w 31 -30 19 1
w 31 -30 -19 1
w 32 31 20 1
w 32 31 -20 0
w 32 -31 20 0
w 32 -31 -20 0
w 33 32 21 1
w 33 32 -21 0
w 33 -32 21 1
w 33 -32 -21 1
w 34 33 22 0
w 34 33 -22 0
w 34 -33 22 1
w 34 -33 -22 0
w 35 34 23 1
w 35 34 -23 0
w 35 -34 23 1
w 35 -34 -23 0
w 36 35 24 0
w 36 35 -24 1
w 36 -35 24 0
w 36 -35 -24 1
w 37 25 1
w 37 -25 0
w 38 37 26 1
w 38 37 -26 0
w 38 -37 26 0
w 38 -37 -26 1
w 39 38 27 0
w 39 38 -27 1
w 39 -38 27 1
w 39 -38 -27 1
w 40 39 28 1
w 40 39 -28 0
w 40 -39 28 0
w 40 -39 -28 0
w 41 40 29 0
w 41 40 -29 1
w 41 -40 29 0
w 41 -40 -29 1
w 42 41 30 0
w 42 41 -30 0
w 42 -41 30 1
w 42 -41 -30 1
w 43 42 31 0
w 43 42 -31 0
w 43 -42 31 1
w 43 -42 -31 0
w 44 43 32 0.990583
w 44 43 -32 0.932632
w 44 -43 32 0.513673
w 44 -43 -32 0.0493441
w 45 44 33 0
w 45 44 -33 1
w 45 -44 33 0
w 45 -44 -33 1
w 46 45 34 0
w 46 45 -34 0
w 46 -45 34 1
w 46 -45 -34 0
w 47 46 35 0
w 47 46 -35 1
w 47 -46 35 0
w 47 -46 -35 0
w 48 47 36 1
w 48 47 -36 1
w 48 -47 36 0
w 48 -47 -36 0
w 49 37 0
w 49 -37 1
w 50 49 38 0.174244
w 50 49 -38 0.42536
w 50 -49 38 0.728968
w 50 -49 -38 0.159747
w 51 50 39 0
w 51 50 -39 0
w 51 -50 39 1
w 51 -50 -39 1
w 52 51 40 0
w 52 51 -40 1
w 52 -51 40 1
w 52 -51 -40 1
w 53 52 41 0
w 53 52 -41 1
w 53 -52 41 0
w 53 -52 -41 1
w 54 53 42 1
w 54 53 -42 0
w 54 -53 42 1
w 54 -53 -42 1
w 55 54 43 1
w 55 54 -43 1
w 55 -54 43 0
w 55 -54 -43 1
w 56 55 44 0
w 56 55 -44 1
w 56 -55 44 1
w 56 -55 -44 0
w 57 56 45 0.954567
w 57 56 -45 0.598204
w 57 -56 45 0.849409
w 57 -56 -45 0.281257
w 58 57 46 1
w 58 57 -46 0
w 58 -57 46 1
w 58 -57 -46 1
w 59 58 47 1
w 59 58 -47 0
w 59 -58 47 1
w 59 -58 -47 0
w 60 59 48 1
w 60 59 -48 1
w 60 -59 48 0
w 60 -59 -48 1
w 61 49 0
w 61 -49 1
w 62 61 50 0
w 62 61 -50 0
w 62 -61 50 1
w 62 -61 -50 1
w 63 62 51 0
w 63 62 -51 1
w 63 -62 51 0
w 63 -62 -51 1
w 64 63 52 0.712543
w 64 63 -52 0.0476758
w 64 -63 52 0.67836
w 64 -63 -52 0.817233
w 65 64 53 0
w 65 64 -53 1
w 65 -64 53 1
w 65 -64 -53 1
w 66 65 54 0.473503
w 66 65 -54 0.134793
w 66 -65 54 0.913503
w 66 -65 -54 0.336962
w 67 66 55 0.38011
w 67 66 -55 0.46398
w 67 -66 55 0.105739
w 67 -66 -55 0.568789
w 68 67 56 1
w 68 67 -56 0
w 68 -67 56 0
w 68 -67 -56 0
w 69 68 57 1
w 69 68 -57 0
w 69 -68 57 0
w 69 -68 -57 1
w 70 69 58 0.3422
w 70 69 -58 0.354273
w 70 -69 58 0.980303
w 70 -69 -58 0.0205604
w 71 70 59 0
w 71 70 -59 1
w 71 -70 59 1
w 71 -70 -59 0
w 72 71 60 1
w 72 71 -60 1
w 72 -71 60 1
w 72 -71 -60 0
w 73 61 0
w 73 -61 1
w 74 73 62 1
w 74 73 -62 0
w 74 -73 62 0
w 74 -73 -62 0
w 75 74 63 0
w 75 74 -63 0
w 75 -74 63 1
w 75 -74 -63 1
w 76 75 64 0
w 76 75 -64 1
w 76 -75 64 1
w 76 -75 -64 0
w 77 76 65 0.589454
w 77 76 -65 0.397029
w 77 -76 65 0.119208
w 77 -76 -65 0.97325
w 78 77 66 0
w 78 77 -66 1
w 78 -77 66 0
w 78 -77 -66 0
w 79 78 67 0.992341
w 79 78 -67 0.162963
w 79 -78 67 0.842009
w 79 -78 -67 0.244176
w 80 79 68 1
w 80 79 -68 1
w 80 -79 68 0
w 80 -79 -68 0
w 81 80 69 0
w 81 80 -69 0
w 81 -80 69 1
w 81 -80 -69 1
w 82 81 70 0
w 82 81 -70 1
w 82 -81 70 1
w 82 -81 -70 1
w 83 82 71 0
w 83 82 -71 0
w 83 -82 71 0
w 83 -82 -71 1
w 84 83 72 0
w 84 83 -72 1
w 84 -83 72 0
w 84 -83 -72 0
w 85 73 0
w 85 -73 1
w 86 85 74 1
w 86 85 -74 1
w 86 -85 74 0
w 86 -85 -74 1
w 87 86 75 0.109635
w 87 86 -75 0.488494
w 87 -86 75 0.391732
w 87 -86 -75 0.556768
w 88 87 76 1
w 88 87 -76 0
w 88 -87 76 1
w 88 -87 -76 1
w 89 88 77 0
w 89 88 -77 1
w 89 -88 77 1
w 89 -88 -77 0
w 90 89 78 0.931832
w 90 89 -78 0.391003
w 90 -89 78 0.89252
w 90 -89 -78 0.282375
w 91 90 79 0
w 91 90 -79 1
w 91 -90 79 0
w 91 -90 -79 0
w 92 91 80 1
w 92 91 -80 1
w 92 -91 80 0
w 92 -91 -80 0
w 93 92 81 0
w 93 92 -81 1
w 93 -92 81 0
w 93 -92 -81 0
w 94 93 82 1
w 94 93 -82 1
w 94 -93 82 0
w 94 -93 -82 0
w 95 94 83 0.746556
w 95 94 -83 0.879549
w 95 -94 83 0.674934
w 95 -94 -83 0.840048
w 96 95 84 0
w 96 95 -84 0
w 96 -95 84 1
w 96 -95 -84 0
w 97 85 1
w 97 -85 0
w 98 97 86 1
w 98 97 -86 1
w 98 -97 86 0
w 98 -97 -86 0
w 99 98 87 0.555438
w 99 98 -87 0.335097
w 99 -98 87 0.79246
w 99 -98 -87 0.671501
w 100 99 88 0.742726
w 100 99 -88 0.276059
w 100 -99 88 0.709189
w 100 -99 -88 0.249759
w 101 100 89 1
w 101 100 -89 0
w 101 -100 89 0
w 101 -100 -89 0
w 102 101 90 0
w 102 101 -90 1
w 102 -101 90 0
w 102 -101 -90 0
w 103 102 91 0
w 103 102 -91 1
w 103 -102 91 0
w 103 -102 -91 1
w 104 103 92 0.17905
w 104 103 -92 0.12892
w 104 -103 92 0.906987
w 104 -103 -92 0.788007
w 105 104 93 0.858816
w 105 104 -93 0.343445
w 105 -104 93 0.181621
w 105 -104 -93 0.651275
w 106 105 94 1
w 106 105 -94 0
w 106 -105 94 1
w 106 -105 -94 1
w 107 106 95 1
w 107 106 -95 1
w 107 -106 95 0
w 107 -106 -95 1
w 108 107 96 0.0785833
w 108 107 -96 0.885853
w 108 -107 96 0.496479
w 108 -107 -96 0.00932044
w 109 97 0
w 109 -97 1
w 110 109 98 0
w 110 109 -98 1
w 110 -109 98 0
w 110 -109 -98 0
w 111 110 99 1
w 111 110 -99 0
w 111 -110 99 1
w 111 -110 -99 1
w 112 111 100 0.675156
w 112 111 -100 0.625874
w 112 -111 100 0.492823
w 112 -111 -100 0.690102
w 113 112 101 0
w 113 112 -101 1
w 113 -112 101 0
w 113 -112 -101 0
w 114 113 102 1
w 114 113 -102 0
w 114 -113 102 1
w 114 -113 -102 0
w 115 114 103 0
w 115 114 -103 1
w 115 -114 103 0
w 115 -114 -103 1
w 116 115 104 1
w 116 115 -104 1
w 116 -115 104 0
w 116 -115 -104 0
w 117 116 105 0
w 117 116 -105 1
w 117 -116 105 0
w 117 -116 -105 0
w 118 117 106 0.974358
w 118 117 -106 0.175517
w 118 -117 106 0.454983
w 118 -117 -106 0.467181
w 119 118 107 0.0887543
w 119 118 -107 0.354005
w 119 -118 107 0.846726
w 119 -118 -107 0.439613
w 120 119 108 0.548113
w 120 119 -108 0.654409
w 120 -119 108 0.403069
w 120 -119 -108 0.112792
w 121 109 0
w 121 -109 1
w 122 121 110 1
w 122 121 -110 0
w 122 -121 110 0
w 122 -121 -110 0
w 123 122 111 0.594955
w 123 122 -111 0.151204
w 123 -122 111 0.711961
w 123 -122 -111 0.745033
w 124 123 112 0
w 124 123 -112 0
w 124 -123 112 1
w 124 -123 -112 1
w 125 124 113 0.995732
w 125 124 -113 0.380909
w 125 -124 113 0.319382
w 125 -124 -113 0.861351
w 126 125 114 1
w 126 125 -114 1
w 126 -125 114 1
w 126 -125 -114 0
w 127 126 115 0
w 127 126 -115 1
w 127 -126 115 1
w 127 -126 -115 0
w 128 127 116 0.932304
w 128 127 -116 0.541594
w 128 -127 116 0.567691
w 128 -127 -116 0.452926
w 129 128 117 0
w 129 128 -117 0
w 129 -128 117 1
w 129 -128 -117 0
w 130 129 118 0.53891
w 130 129 -118 0.301303
w 130 -129 118 0.670756
w 130 -129 -118 0.359125
w 131 130 119 1
w 131 130 -119 0
w 131 -130 119 1
w 131 -130 -119 0
w 132 131 120 0
w 132 131 -120 0
w 132 -131 120 0
w 132 -131 -120 1
w 133 121 1
w 133 -121 0
w 134 133 122 1
w 134 133 -122 0
w 134 -133 122 0
w 134 -133 -122 0
w 135 134 123 1
w 135 134 -123 1
w 135 -134 123 0
w 135 -134 -123 1
w 136 135 124 1
w 136 135 -124 0
w 136 -135 124 1
w 136 -135 -124 1
w 137 136 125 0
w 137 136 -125 0
w 137 -136 125 1
w 137 -136 -125 1
w 138 137 126 0.907785
w 138 137 -126 0.397298
w 138 -137 126 0.811533
w 138 -137 -126 0.123994
w 139 138 127 0
w 139 138 -127 0
w 139 -138 127 1
w 139 -138 -127 0
w 140 139 128 1
w 140 139 -128 1
w 140 -139 128 1
w 140 -139 -128 0
w 141 140 129 0
w 141 140 -129 1
w 141 -140 129 0
w 141 -140 -129 0
w 142 141 130 0
w 142 141 -130 1
w 142 -141 130 0
w 142 -141 -130 1
w 143 142 131 0.398942
w 143 142 -131 0.0447701
w 143 -142 131 0.663127
w 143 -142 -131 0.368136
w 144 143 132 0.0604252
w 144 143 -132 0.179668
w 144 -143 132 0.0765492
w 144 -143 -132 0.535524